Annee_2/Semestre_7/Recherche_Operationnelle/TP1/PbAssemblagePLNE.sol.txt
Problem:    
Rows:       3
Columns:    2 (2 integer, 0 binary)
Non-zeros:  5
Status:     INTEGER OPTIMAL
Objective:  Marge = 10284000 (MAXimum)

   No.   Row name        Activity     Lower bound   Upper bound
------ ------------    ------------- ------------- -------------
     1 Surface_du_parking
                               14970                       15000 
     2 Nb_dheure_de_travail
                                  60                          60 
     3 Nb_maximal_de_voiture_de_Luxe
                                 645                         800 

   No. Column name       Activity     Lower bound   Upper bound
------ ------------    ------------- ------------- -------------
     1 L            *            645             0               
     2 S            *            426             0               

Integer feasibility conditions:

KKT.PE: max.abs.err = 0.00e+00 on row 0
        max.rel.err = 0.00e+00 on row 0
        High quality

KKT.PB: max.abs.err = 0.00e+00 on row 0
        max.rel.err = 0.00e+00 on row 0
        High quality

End of output
